
(set-logic ALL) 

(declare-datatype MyList ((Nil) (Cons (head Real) (tail MyList)) )) 
(declare-fun l0 () MyList) 
(declare-fun l1 () MyList) 
(declare-fun l2 () MyList) 
(declare-fun l3 () MyList) 
(declare-fun i0 () Real) 
(declare-fun i1 () Real) 
(assert (is-Nil Nil) )
(assert (or (= l0 Nil) (= l2 l3)) )
(assert (or (is-Cons l2) (= l3 Nil)) )
(assert (is-Cons l3) )
(assert (and (is-Cons l3) (is-Nil Nil)) )
(assert (is-Nil l3) )
(assert (or (= l3 Nil) (is-Cons l1)) )
(assert (not (= l1 Nil)) )
(check-sat)
